200
200
160
160
159
159
159
159
158
158
158
156
156
155
154
154
153
153
152
152
150
149
148
148
147
146
145
143
143
143
142
141
141
140
139
139
138
138
138
137
136
135
135
135
134
130
130
129
127
127
126
126
126
126
124
124
123
122
122
121
121
120
118
116
112
111
111
110
110
109
108
107
106
105
105
104
104
103
103
102
102
99
99
99
98
97
97
96
95
95
95
94
94
93
92
92
91
90
90
88
87
86
86
86
85
84
84
83
83
81
81
81
79
79
79
78
77
75
74
74
74
73
72
71
70
69
69
68
68
68
67
67
67
67
66
65
64
63
63
63
63
63
62
62
61
61
59
57
56
56
55
55
55
53
52
52
52
51
51
50
50
49
48
48
48
46
46
45
44
44
42
41
41
41
41
41
40
40
39
37
37
36
34
34
33
33
32
30
29
28
28
27
26
25
24
23
23
21
21
21
20
20
